33D32945 STP File, STP Format Version 1.0

SECTION Comment
Name "lin04-20s"
Creator "Bernd Zey"
Problem "Stochastic Steiner Tree Problem"
# Stochastic Steiner tree problem instance, base file: lin04.stp
# weight-scaling off
# parameters:
# distribution=equal
# selectRootRandomly=0
# probabilityTerminal=33
# probabilityNonTerminal=5
# 2nd stage edge-costs in [1.1000c_e, 1.3000c_e]
END

SECTION Graph
Nodes 157
Edges 266
Scenarios 20
Root 21
E 1 34 122
E 1 46 146
E 2 70 64
E 2 94 50
E 2 23 10
E 3 103 28
E 3 112 62
E 3 51 28
E 4 120 62
E 4 66 32
E 4 20 74
E 4 32 40
E 5 51 62
E 5 112 28
E 5 109 74
E 5 96 26
E 6 130 28
E 6 17 40
E 6 119 90
E 6 57 12
E 7 14 146
E 7 49 46
E 7 111 102
E 8 30 132
E 8 38 28
E 8 42 28
E 8 68 70
E 9 140 74
E 9 10 2
E 9 121 118
E 10 32 74
E 10 20 40
E 11 147 158
E 11 27 36
E 11 128 32
E 12 97 32
E 12 13 46
E 12 123 16
E 13 48 32
E 13 18 132
E 13 72 16
E 14 92 28
E 14 30 46
E 15 26 130
E 15 135 64
E 15 77 8
E 16 90 2
E 16 58 8
E 16 142 26
E 17 68 28
E 17 42 70
E 17 113 90
E 18 133 32
E 18 36 28
E 18 39 16
E 19 85 46
E 19 88 84
E 19 31 132
E 19 131 112
E 20 28 32
E 21 116 51
E 21 68 81
E 22 78 28
E 22 65 24
E 22 155 158
E 22 54 6
E 23 26 64
E 23 135 130
E 24 27 122
E 24 143 54
E 24 50 32
E 25 137 2
E 25 37 42
E 25 144 8
E 26 156 54
E 26 70 10
E 27 87 32
E 28 66 74
E 29 94 16
E 29 89 44
E 29 150 140
E 30 131 28
E 30 116 70
E 31 47 84
E 31 99 28
E 31 38 112
E 32 61 62
E 32 140 2
E 33 43 6
E 33 90 26
E 33 142 2
E 33 101 76
E 34 40 14
E 34 55 76
E 35 93 50
E 35 154 52
E 36 147 32
E 36 128 158
E 36 65 16
E 37 94 140
E 37 150 16
E 37 110 8
E 38 131 132
E 38 114 28
E 39 72 132
E 39 65 28
E 39 78 24
E 40 80 98
E 40 122 76
E 41 54 158
E 41 155 6
E 41 118 36
E 41 141 84
E 42 114 28
E 42 106 90
E 43 63 64
E 43 151 26
E 43 102 76
E 44 51 26
E 44 96 62
E 44 69 158
E 45 136 98
E 45 153 28
E 45 125 14
E 45 122 34
E 46 124 122
E 46 104 158
E 47 88 132
E 47 78 6
E 47 54 28
E 48 97 46
E 48 133 132
E 49 116 76
E 49 100 132
E 49 98 102
E 50 87 122
E 50 148 54
E 50 145 16
E 51 89 98
E 52 98 132
E 52 100 102
E 52 157 164
E 53 119 46
E 53 77 76
E 53 60 12
E 54 99 84
E 55 122 14
E 55 125 34
E 56 123 24
E 56 84 46
E 56 115 6
E 57 62 28
E 57 95 90
E 58 139 2
E 58 144 28
E 58 138 42
E 59 67 64
E 59 64 28
E 59 139 6
E 59 151 8
E 60 95 46
E 60 75 16
E 61 79 37
E 61 120 40
E 61 126 2
E 62 130 12
E 62 100 24
E 63 134 26
E 63 127 76
E 64 77 64
E 64 135 8
E 64 86 6
E 65 105 158
E 66 143 132
E 67 71 40
E 67 77 28
E 67 134 8
E 68 130 40
E 69 150 98
E 69 124 14
E 69 153 8
E 70 82 186
E 71 74 32
E 72 123 46
E 72 84 24
E 73 152 18
E 73 117 104
E 73 82 6
E 74 75 4
E 74 93 8
E 75 81 8
E 76 114 90
E 76 156 68
E 76 106 28
E 78 84 132
E 79 146 77
E 80 101 60
E 80 132 76
E 81 100 164
E 81 93 4
E 81 157 102
E 82 118 18
E 83 129 146
E 83 89 16
E 83 94 44
E 84 88 6
E 85 115 84
E 85 92 112
E 86 137 8
E 86 144 2
E 86 139 28
E 87 128 36
E 87 107 16
E 88 115 46
E 90 151 6
E 90 139 8
E 91 153 14
E 91 124 8
E 91 125 28
E 92 131 46
E 93 134 72
E 95 119 12
E 96 104 74
E 98 111 46
E 99 149 60
E 99 114 112
E 101 102 6
E 102 127 64
E 103 126 90
E 104 109 26
E 105 128 16
E 105 107 36
E 105 155 24
E 106 113 70
E 107 145 122
E 107 152 24
E 108 110 16
E 108 150 8
E 108 153 98
E 108 136 28
E 109 121 28
E 110 144 42
E 110 138 28
E 112 140 118
E 112 121 74
E 113 119 40
E 117 145 24
E 117 146 10
E 118 152 6
E 120 148 70
E 122 132 98
E 126 129 114
E 126 140 62
E 127 154 72
E 129 146 2
E 132 142 58
E 132 136 34
E 133 147 28
E 134 151 64
E 135 137 6
E 136 138 16
E 141 149 98
E 141 156 112
E 143 148 32
E 152 155 36
E 154 157 4
END

SECTION StochasticProbabilities
SP 0.035900 0.030800 0.061600 0.025700 0.071800 0.061600 0.046200 0.030800 0.051300 0.056500 0.051300 0.071800 0.041100 0.030700 0.051200 0.030700 0.082000 0.051200 0.046100 0.071700
END

SECTION StochasticWeights
SE 156 142 144 146 148 136 146 149 153 153 136 137 157 149 138 138 140 157 145 145 
SE 189 167 178 189 163 171 177 179 186 161 174 161 189 168 185 174 170 171 189 180 
SE 72 72 83 82 80 82 79 79 73 77 80 83 75 71 81 80 75 81 73 81 
SE 57 64 64 61 63 63 56 62 61 65 58 57 56 57 61 57 56 61 56 56 
SE 12 13 11 11 12 11 11 13 11 11 13 11 13 11 11 13 13 11 12 12 
SE 31 31 36 35 31 36 31 31 32 35 36 31 34 36 31 35 31 34 33 31 
SE 77 75 76 71 77 69 72 69 71 73 70 78 70 72 75 70 80 80 76 76 
SE 31 35 34 35 35 36 31 34 31 34 34 34 33 32 34 31 34 32 31 31 
SE 70 78 71 70 75 75 69 69 74 75 80 69 69 70 72 74 75 74 72 79 
SE 41 39 37 36 37 37 40 38 36 38 39 41 41 38 36 39 37 41 37 37 
SE 95 87 82 82 82 93 89 95 83 96 83 93 91 95 96 90 89 84 88 96 
SE 48 49 50 51 51 50 51 49 47 47 50 50 44 48 45 46 45 46 45 46 
SE 72 79 74 79 69 76 69 70 79 78 70 69 79 78 76 69 70 77 69 77 
SE 35 31 34 35 31 31 36 33 34 34 32 33 34 36 33 35 31 34 36 34 
SE 91 86 84 85 85 84 82 94 88 94 89 85 91 86 92 94 82 91 87 92 
SE 31 30 32 29 30 30 29 33 30 30 29 32 30 30 30 32 29 30 31 32 
SE 31 33 31 36 31 34 31 31 33 36 36 35 32 33 36 36 31 33 31 31 
SE 48 50 44 49 51 46 48 48 44 49 51 49 50 47 49 46 47 47 50 50 
SE 109 110 110 110 114 100 113 103 102 105 100 102 117 100 112 117 111 101 115 101 
SE 14 14 14 14 14 14 14 14 14 14 14 15 15 15 15 14 14 14 15 14 
SE 181 173 161 165 189 166 189 179 161 179 169 189 174 180 176 161 163 188 184 183 
SE 57 55 51 54 55 51 56 51 59 52 51 58 57 51 52 54 54 53 54 51 
SE 120 117 132 132 124 121 128 121 124 113 119 114 115 124 123 113 124 125 123 113 
SE 168 164 148 151 155 165 154 164 159 167 150 149 160 155 149 163 151 146 152 153 
SE 31 34 35 35 34 35 36 32 35 34 31 35 31 36 33 31 31 31 31 33 
SE 35 31 32 31 31 36 34 34 33 32 31 33 31 32 34 31 33 32 33 31 
SE 84 87 90 82 82 78 88 83 90 87 86 77 89 80 87 87 79 77 83 88 
SE 84 94 95 89 84 93 91 82 87 96 82 96 95 82 87 91 91 92 93 87 
SE 3 3 3 3 3 3 3 3 3 3 3 3 3 3 3 3 3 3 3 3 
SE 150 146 144 142 152 150 147 131 153 132 145 144 149 150 145 144 139 147 150 130 
SE 82 92 91 85 90 84 94 88 87 93 95 92 83 82 90 96 82 88 91 94 
SE 52 45 47 51 48 51 46 49 50 46 49 51 47 46 49 49 46 46 49 47 
SE 196 205 202 182 186 185 182 188 175 177 192 194 177 189 205 197 184 178 184 200 
SE 40 40 44 40 43 40 42 45 45 40 43 45 44 45 43 43 42 42 42 41 
SE 36 37 39 39 39 38 37 36 36 36 39 40 40 36 36 36 36 36 36 39 
SE 36 36 41 37 36 40 37 41 41 38 37 39 39 37 36 40 36 37 36 36 
SE 59 52 54 54 56 54 53 51 56 56 51 57 51 57 51 55 55 53 55 58 
SE 20 18 19 20 18 19 20 18 18 19 19 18 18 18 20 18 19 18 19 18 
SE 36 40 39 41 41 39 37 39 36 36 39 36 41 37 38 38 38 37 36 36 
SE 163 151 157 152 146 163 167 154 159 146 155 146 151 164 169 149 159 158 154 161 
SE 18 18 18 18 18 19 18 20 18 18 18 18 18 20 20 18 18 20 18 20 
SE 34 36 32 31 32 34 31 31 34 33 32 36 32 32 31 31 31 31 31 32 
SE 51 53 57 54 59 52 52 51 52 53 52 59 51 51 59 51 55 53 51 56 
SE 168 166 159 143 146 161 158 167 169 168 155 163 150 163 154 168 154 151 149 148 
SE 79 75 74 75 78 82 83 73 76 75 79 77 83 79 78 83 80 79 83 81 
SE 9 9 10 9 9 10 9 9 9 9 9 9 9 9 9 9 10 9 9 9 
SE 3 3 3 3 3 3 3 3 3 3 3 3 3 3 3 3 3 3 3 3 
SE 9 9 9 9 10 10 10 9 10 9 10 10 9 9 9 9 9 10 9 9 
SE 33 32 29 29 29 29 33 33 32 31 29 29 31 32 29 29 33 32 30 29 
SE 33 32 31 36 31 33 31 33 34 31 35 33 31 31 33 31 32 33 33 32 
SE 85 89 91 80 84 80 80 79 90 80 80 88 81 87 83 83 91 85 78 79 
SE 101 110 103 106 112 103 103 100 102 104 104 102 100 116 102 106 105 107 116 113 
SE 38 40 36 37 36 37 37 38 36 36 38 40 37 38 41 37 38 38 36 36 
SE 32 33 33 32 35 32 35 33 31 35 34 32 33 36 31 31 32 35 35 35 
SE 19 19 18 19 18 18 18 18 18 18 20 18 18 18 18 18 20 18 18 18 
SE 54 53 53 55 51 58 51 58 53 52 52 51 53 54 57 57 59 51 51 51 
SE 108 97 109 94 94 103 109 95 95 98 94 95 108 102 93 96 95 103 102 103 
SE 165 157 167 161 162 153 170 167 150 153 150 154 151 166 165 151 161 147 148 158 
SE 144 144 128 144 144 139 142 134 132 139 135 141 129 133 128 128 135 128 139 138 
SE 38 38 41 40 39 37 38 41 40 36 37 36 36 41 39 38 41 39 36 38 
SE 66 60 59 66 57 59 57 57 65 60 62 60 65 57 60 61 64 62 63 64 
SE 105 93 98 90 103 92 104 100 99 99 100 105 102 94 102 100 103 98 95 96 
SE 32 31 33 31 35 31 31 31 32 31 33 35 33 33 33 32 34 31 32 32 
SE 30 27 30 29 28 27 29 27 29 27 28 27 27 31 28 28 27 29 28 29 
SE 183 186 178 191 182 196 180 186 193 202 199 182 183 188 203 174 194 179 198 199 
SE 7 7 7 7 7 7 7 7 7 7 7 7 7 7 7 7 7 7 7 7 
SE 74 83 78 73 78 76 82 77 79 78 80 83 81 83 73 79 72 76 77 80 
SE 162 161 168 155 143 152 167 144 161 157 157 144 159 157 167 152 161 165 147 146 
SE 140 149 145 148 135 145 137 154 150 145 138 147 143 142 139 135 156 135 152 136 
SE 64 64 61 63 70 61 66 67 60 67 69 66 68 64 68 62 65 63 63 63 
SE 36 37 40 38 40 38 41 36 41 38 41 36 39 38 36 41 36 41 36 36 
SE 3 3 3 3 3 3 3 3 3 3 3 3 3 3 3 3 3 3 3 3 
SE 51 47 49 47 51 53 52 48 52 54 47 52 47 51 51 52 52 53 47 54 
SE 10 9 9 9 9 9 10 9 10 9 10 9 9 9 10 9 10 9 10 10 
SE 70 64 69 70 60 69 60 62 63 66 67 65 66 70 61 63 60 60 70 69 
SE 11 12 13 12 13 11 12 13 12 11 13 11 13 11 13 11 12 13 12 11 
SE 41 38 39 38 37 37 37 36 41 37 39 40 36 37 41 36 37 41 38 40 
SE 93 90 91 96 89 88 93 92 95 85 95 93 92 92 87 87 96 95 93 86 
SE 20 18 19 20 18 18 20 18 19 18 19 20 20 20 19 20 20 18 20 18 
SE 55 51 50 51 50 49 49 50 57 52 53 56 50 49 49 49 56 57 55 54 
SE 169 170 180 177 171 165 175 177 157 164 157 172 166 182 155 171 173 155 157 181 
SE 34 32 31 32 31 33 35 35 35 35 31 31 31 31 31 35 31 35 32 34 
SE 85 86 79 88 78 80 78 84 77 86 82 91 81 78 80 82 91 89 83 81 
SE 104 108 102 96 99 108 96 96 100 107 102 98 103 100 99 101 102 103 94 109 
SE 35 33 31 33 34 35 33 31 34 34 35 33 31 35 36 34 31 31 36 33 
SE 130 138 133 144 138 135 135 132 136 138 142 126 136 129 140 143 127 131 143 132 
SE 74 73 77 78 69 76 73 69 69 77 69 76 74 72 75 80 78 76 72 69 
SE 3 3 3 3 3 3 3 3 3 3 3 3 3 3 3 3 3 3 3 3 
SE 7 7 7 7 7 7 7 7 7 7 7 7 7 7 7 7 7 7 7 7 
SE 32 30 31 33 29 29 33 31 33 30 31 29 30 32 29 29 29 29 31 30 
SE 3 3 3 3 3 3 3 3 3 3 3 3 3 3 3 3 3 3 3 3 
SE 97 97 94 92 91 92 94 96 87 96 88 85 84 95 92 87 90 84 86 88 
SE 18 16 16 16 16 16 18 16 16 18 16 17 17 18 18 17 18 17 16 17 
SE 96 98 91 94 93 90 91 89 92 89 86 91 90 85 87 94 84 84 84 84 
SE 61 56 56 57 56 62 57 63 63 59 63 61 58 64 58 65 57 64 56 63 
SE 58 58 66 58 58 64 60 66 64 59 58 60 61 64 66 62 58 63 62 63 
SE 36 39 36 38 37 37 36 36 36 41 36 40 39 37 38 36 36 38 37 37 
SE 197 192 185 203 188 199 186 174 205 189 190 174 187 186 174 197 186 197 194 174 
SE 18 18 18 20 20 19 20 20 18 19 18 18 18 18 20 20 18 19 20 18 
SE 164 168 177 178 155 171 182 160 164 179 165 170 181 173 177 161 154 167 162 168 
SE 18 19 18 19 18 20 18 19 19 18 19 20 20 18 20 19 18 18 18 20 
SE 9 9 9 9 9 9 9 10 10 10 10 10 9 9 9 10 9 10 9 9 
SE 159 165 167 163 151 146 168 151 165 154 162 169 146 158 148 154 171 154 171 148 
SE 31 35 34 36 33 31 31 31 35 33 34 36 35 36 33 34 34 32 33 36 
SE 149 171 152 146 154 154 150 167 168 154 165 169 154 166 157 146 160 154 154 150 
SE 31 32 35 31 33 31 31 35 33 35 32 32 35 35 31 32 33 31 31 34 
SE 28 29 27 27 27 29 30 29 28 27 31 29 31 30 29 30 27 31 31 31 
SE 116 114 127 122 114 118 108 117 108 109 122 119 123 124 124 114 112 125 114 124 
SE 94 86 87 85 86 93 91 84 97 93 85 92 92 92 84 92 84 97 90 93 
SE 184 178 184 194 196 183 177 174 201 174 189 198 180 183 194 175 192 174 175 202 
SE 7 7 7 7 7 7 7 7 7 7 7 7 7 7 7 7 7 7 7 7 
SE 46 41 43 42 45 46 41 46 40 46 43 44 40 42 44 45 44 44 40 41 
SE 101 104 97 100 104 94 99 108 107 96 109 103 97 106 94 97 105 96 96 93 
SE 35 35 32 31 32 33 36 33 35 32 31 35 34 36 35 31 35 33 34 36 
SE 101 100 111 106 111 101 107 108 111 103 114 107 101 105 106 112 111 100 116 117 
SE 71 77 71 78 77 78 73 78 78 82 74 72 83 81 73 83 83 71 73 82 
SE 29 33 29 29 29 30 31 29 29 30 32 29 32 29 29 29 29 29 29 33 
SE 94 94 93 97 86 91 94 92 96 86 97 95 84 96 93 92 97 95 97 84 
SE 29 29 29 29 32 33 31 30 29 32 32 29 33 32 33 29 29 29 29 33 
SE 69 69 70 78 71 72 73 78 76 78 69 74 78 80 75 74 74 70 76 79 
SE 200 175 175 179 181 193 197 188 191 204 199 201 199 179 175 197 178 189 191 183 
SE 122 126 119 124 119 116 109 123 116 114 108 114 119 125 109 123 118 121 126 122 
SE 36 33 34 33 32 32 35 32 34 34 31 35 36 35 35 35 36 35 32 33 
SE 18 16 16 17 16 16 16 17 18 16 18 18 16 18 17 16 16 17 18 17 
SE 38 38 44 43 39 41 43 39 38 39 38 38 42 41 43 38 44 43 40 38 
SE 155 142 143 141 150 142 135 143 155 146 141 141 141 136 141 150 158 158 143 140 
SE 199 187 174 181 188 204 185 192 183 202 203 197 174 177 184 204 191 194 182 192 
SE 166 168 151 157 157 162 170 159 171 152 166 152 158 148 149 157 169 148 171 160 
SE 7 7 7 7 7 7 7 7 7 7 7 7 7 7 7 7 7 7 7 7 
SE 31 31 31 34 32 34 31 35 34 33 34 36 36 32 36 33 31 34 33 31 
SE 58 52 51 54 58 58 58 55 51 56 59 59 59 56 52 56 58 58 57 59 
SE 159 160 163 155 161 169 171 155 160 152 169 159 168 153 170 152 170 167 153 160 
SE 89 91 88 96 94 94 84 84 86 95 97 98 89 92 93 90 97 84 87 95 
SE 158 171 152 146 158 149 146 151 157 148 167 170 163 151 159 156 158 159 154 162 
SE 122 130 127 114 113 124 124 129 129 113 118 113 123 113 131 117 113 131 127 125 
SE 138 154 148 135 138 149 136 137 135 148 135 152 144 148 135 151 146 151 140 151 
SE 68 61 64 62 65 69 62 64 62 64 69 70 68 63 70 63 60 67 65 60 
SE 20 19 18 18 18 18 20 20 19 18 18 18 18 20 18 18 18 19 18 20 
SE 116 114 124 118 113 114 124 124 115 126 109 118 123 110 117 117 108 125 124 125 
SE 152 171 149 149 152 162 169 149 162 149 170 165 170 171 168 153 155 171 146 165 
SE 113 120 124 131 127 132 131 120 113 118 131 129 120 118 127 119 119 113 126 117 
SE 213 191 206 193 201 212 197 182 204 183 200 202 205 202 210 181 197 209 212 202 
SE 56 54 58 55 58 53 51 51 51 57 51 55 51 51 54 54 53 53 57 59 
SE 88 88 87 94 97 86 89 90 84 92 86 86 98 88 94 91 84 85 96 85 
SE 14 14 14 14 14 15 14 14 14 14 14 14 14 14 14 14 14 15 15 15 
SE 108 107 107 101 108 95 107 108 102 95 101 107 105 93 104 104 105 108 96 104 
SE 16 16 18 16 18 18 18 16 16 17 16 16 16 16 16 17 17 16 16 17 
SE 44 39 38 39 41 40 38 38 39 40 44 41 41 42 41 40 38 43 43 41 
SE 29 30 31 31 31 29 28 27 28 28 28 27 29 29 31 31 29 28 28 28 
SE 53 52 52 57 56 54 56 54 52 51 56 51 52 51 55 52 54 54 56 55 
SE 7 7 7 7 7 7 7 7 7 7 7 7 7 7 7 7 7 7 7 7 
SE 36 35 32 33 36 31 34 34 34 31 31 32 31 32 36 36 35 31 36 32 
SE 101 102 115 106 108 103 108 100 107 116 116 109 105 102 100 114 108 106 115 101 
SE 3 3 3 3 3 3 3 3 3 3 3 3 3 3 3 3 3 3 3 3 
SE 31 36 34 31 36 34 35 36 36 31 31 31 36 33 32 36 33 35 36 35 
SE 50 47 54 50 51 47 52 50 50 47 50 49 47 49 54 52 49 52 53 54 
SE 76 82 82 80 76 83 79 76 71 83 73 72 77 78 72 82 71 73 73 77 
SE 35 31 35 33 36 35 35 33 32 31 33 31 31 32 33 31 32 31 31 36 
SE 7 7 7 7 7 7 7 7 7 7 7 7 7 7 7 7 7 7 7 7 
SE 9 10 10 9 9 10 9 9 9 10 9 10 9 10 9 9 9 9 9 10 
SE 51 57 56 51 52 57 53 51 58 55 58 52 51 54 52 55 58 51 56 59 
SE 20 20 18 19 20 18 18 19 20 18 18 19 18 18 18 18 18 18 18 18 
SE 45 43 42 44 47 46 44 43 42 41 42 48 46 41 42 48 41 43 42 42 
SE 51 47 47 46 51 46 45 51 45 47 47 49 48 51 47 44 48 44 46 44 
SE 3 3 3 3 3 3 3 3 3 3 3 3 3 3 3 3 3 3 3 3 
SE 14 14 14 14 15 14 14 14 14 15 14 14 14 15 15 15 15 15 14 14 
SE 28 29 28 27 30 27 27 30 29 28 28 28 27 30 31 30 27 27 31 31 
SE 31 30 31 30 33 31 30 29 33 32 33 31 31 33 31 31 30 32 33 33 
SE 89 87 94 84 85 90 84 96 93 92 93 90 96 93 98 84 84 89 89 89 
SE 71 77 81 76 78 72 72 80 80 79 72 76 82 71 77 81 77 73 83 74 
SE 10 10 9 9 9 9 9 10 10 9 9 10 9 9 9 9 9 9 9 9 
SE 7 7 7 7 7 7 7 7 7 7 7 7 7 7 7 7 7 7 7 7 
SE 194 199 187 184 186 192 189 204 186 201 183 197 175 197 188 194 176 205 181 187 
SE 146 159 157 147 146 146 155 167 146 161 161 147 146 161 167 167 161 165 161 146 
SE 51 49 49 46 49 51 46 45 47 47 50 47 48 44 46 48 49 48 45 48 
SE 31 34 36 31 32 32 35 32 34 31 31 36 32 34 32 31 31 36 34 36 
SE 9 9 9 9 9 10 9 10 10 10 9 9 9 9 10 10 10 10 9 9 
SE 47 45 46 46 44 44 46 50 45 46 52 50 52 45 45 48 46 50 44 51 
SE 127 110 122 127 114 115 113 122 125 113 109 115 112 123 123 114 124 120 122 112 
SE 16 18 17 18 18 16 16 16 18 17 17 18 18 18 18 16 17 16 17 16 
SE 9 9 10 10 10 9 9 9 9 9 10 9 10 10 9 10 9 9 9 9 
SE 220 219 229 240 221 217 206 221 229 241 205 240 230 240 208 218 230 226 206 241 
SE 36 40 41 41 36 36 39 40 41 36 36 39 38 40 36 40 37 36 40 39 
SE 51 54 51 56 55 53 59 55 51 56 53 54 54 57 52 51 51 54 56 56 
SE 27 27 29 31 30 30 27 27 28 27 28 31 27 27 27 27 31 31 29 27 
SE 23 22 23 20 23 22 20 20 22 20 20 21 20 22 22 22 21 21 21 20 
SE 123 127 123 124 116 134 127 133 115 128 130 131 125 115 130 134 134 126 133 128 
SE 7 7 7 7 7 7 7 7 7 7 7 7 7 7 7 7 7 7 7 7 
SE 5 5 5 5 5 5 5 5 5 5 5 5 5 5 5 5 5 5 5 5 
SE 9 9 10 9 9 9 10 9 9 9 10 9 9 10 9 9 10 10 9 9 
SE 9 9 9 10 9 10 9 10 9 9 9 9 9 9 9 9 9 9 9 9 
SE 117 109 101 113 103 110 103 110 103 104 115 109 114 105 107 112 104 116 101 112 
SE 86 78 78 83 75 80 85 81 77 88 75 86 84 75 88 75 82 76 81 79 
SE 31 32 31 36 33 31 36 31 31 34 32 33 31 33 31 32 31 35 36 35 
SE 166 158 167 151 170 152 162 153 164 167 154 147 169 151 152 160 161 166 148 160 
SE 86 96 96 100 98 90 99 89 85 88 93 85 100 87 92 92 87 85 97 91 
SE 72 75 78 74 72 72 68 77 67 76 70 70 68 74 66 72 72 73 74 74 
SE 94 91 89 89 93 84 89 92 94 84 95 94 84 90 97 96 95 90 90 87 
SE 209 196 182 188 208 183 209 194 195 196 212 211 210 187 201 208 181 183 200 206 
SE 5 5 5 5 5 5 5 5 5 5 5 5 5 5 5 5 5 5 5 5 
SE 131 123 113 124 114 115 129 119 119 120 117 113 119 131 132 113 122 125 114 117 
SE 20 21 20 20 23 22 21 21 22 20 20 22 23 23 20 20 20 22 22 20 
SE 170 188 174 186 181 181 162 182 186 176 162 182 162 189 164 174 176 165 176 168 
SE 20 19 18 19 20 18 18 18 20 18 20 20 18 18 20 18 18 20 20 18 
SE 51 52 57 51 56 52 50 52 52 54 51 53 56 52 57 52 50 50 57 55 
SE 7 7 7 7 7 7 7 7 7 7 7 7 7 7 7 7 7 7 7 7 
SE 96 103 93 97 108 104 101 98 96 99 108 104 108 97 94 109 107 103 103 97 
SE 142 124 145 137 131 135 125 128 124 132 134 126 137 135 128 130 145 145 138 127 
SE 9 10 9 9 9 9 9 9 9 10 10 9 9 9 10 9 10 9 9 9 
SE 3 3 3 3 3 3 3 3 3 3 3 3 3 3 3 3 3 3 3 3 
SE 31 35 32 36 31 35 33 35 31 32 33 33 32 34 33 36 32 33 31 34 
SE 45 44 44 40 44 41 42 45 42 41 45 41 40 42 40 43 40 40 45 40 
SE 20 18 19 18 18 20 18 18 18 18 20 20 20 20 18 18 18 19 20 18 
SE 56 56 54 51 51 53 57 53 55 59 52 57 55 52 55 52 51 54 54 52 
SE 7 7 7 7 7 7 7 7 7 7 7 7 7 7 7 7 7 7 7 7 
SE 9 9 10 10 9 9 9 9 9 10 10 10 10 10 9 10 9 9 9 10 
SE 16 17 16 16 18 17 17 16 18 17 16 17 17 16 17 18 17 17 17 18 
SE 9 9 9 10 9 9 9 10 9 10 10 10 9 9 9 9 9 10 9 9 
SE 33 35 31 31 31 32 31 36 33 33 33 35 33 32 35 35 32 31 36 31 
SE 52 56 55 57 54 53 51 57 52 58 57 59 58 58 54 53 56 53 57 58 
SE 87 92 82 85 87 82 89 82 88 86 92 93 84 91 81 91 85 81 92 90 
SE 14 15 15 14 14 15 15 14 14 14 14 14 15 14 14 14 14 14 14 15 
SE 94 94 90 89 82 85 87 86 88 82 82 95 92 94 96 94 88 86 82 84 
SE 52 57 51 57 59 51 58 51 54 58 59 53 51 54 58 51 57 56 57 52 
SE 77 76 67 67 76 75 68 76 73 72 78 72 73 69 74 69 69 74 71 76 
SE 126 128 144 131 127 138 130 134 124 127 141 126 133 145 135 124 128 145 138 139 
SE 7 7 7 7 7 7 7 7 7 7 7 7 7 7 7 7 7 7 7 7 
SE 75 82 71 71 79 78 78 75 71 71 74 81 77 83 71 80 76 71 71 78 
SE 102 105 109 102 100 116 104 106 117 110 110 106 115 113 104 104 117 113 116 111 
SE 31 31 29 29 30 29 30 30 31 30 32 30 29 31 31 29 29 29 30 32 
SE 19 18 18 19 18 20 19 18 19 20 18 18 19 18 19 19 18 18 19 18 
SE 40 46 45 40 44 43 41 45 45 44 41 44 44 46 40 40 44 40 44 41 
SE 27 27 30 29 27 29 30 27 30 29 28 27 30 29 27 31 27 29 27 27 
SE 85 90 91 80 78 80 78 81 83 77 86 80 78 90 90 78 80 88 89 88 
SE 138 153 151 135 135 148 141 152 151 147 156 145 146 149 156 151 137 156 142 139 
SE 30 31 31 27 28 27 30 29 27 30 27 30 30 31 30 27 31 31 30 28 
SE 19 20 18 19 18 20 18 18 19 18 20 18 19 19 18 19 20 18 20 19 
SE 10 9 10 9 9 9 9 9 9 10 9 9 9 10 9 9 9 9 9 9 
SE 108 126 115 119 109 122 122 111 117 118 121 114 109 124 124 125 122 109 115 119 
SE 35 32 31 33 35 34 33 34 34 34 34 34 35 31 32 34 31 33 36 31 
SE 36 31 31 33 31 34 31 31 36 33 32 31 36 33 32 35 31 31 36 35 
SE 50 48 54 51 47 47 53 47 48 50 54 51 52 53 47 49 51 49 53 51 
SE 35 33 35 34 33 34 33 31 34 35 34 36 35 34 36 34 31 34 31 31 
SE 147 136 144 146 151 138 130 141 133 130 139 147 147 153 132 133 150 138 142 141 
SE 82 85 86 84 83 96 84 88 95 94 86 82 82 94 82 90 91 88 90 90 
SE 48 51 52 48 44 47 51 51 49 48 52 50 51 45 44 50 44 50 50 45 
SE 27 27 29 29 31 27 29 30 30 28 27 27 28 31 29 27 28 31 30 27 
SE 12 13 11 11 12 11 12 12 13 13 11 13 13 13 13 13 12 12 13 13 
SE 7 7 7 7 7 7 7 7 7 7 7 7 7 7 7 7 7 7 7 7 
SE 90 82 79 82 85 81 91 77 87 91 78 80 86 82 78 90 87 91 85 91 
SE 125 123 126 115 123 119 114 112 119 114 113 126 117 120 124 119 108 120 109 110 
SE 146 137 126 126 136 148 146 141 135 140 130 143 134 135 140 130 134 143 142 139 
SE 72 76 69 74 69 72 73 74 74 73 69 72 77 80 75 72 75 75 77 69 
SE 89 87 85 85 92 84 83 86 80 91 91 93 81 92 82 80 84 85 93 83 
SE 3 3 3 3 3 3 3 3 3 3 3 3 3 3 3 3 3 3 3 3 
SE 67 69 66 70 64 65 70 68 65 74 65 75 66 67 67 70 73 65 66 74 
SE 42 40 42 44 38 44 44 40 38 43 42 40 42 38 38 42 42 44 38 40 
SE 35 35 33 36 35 33 33 33 35 33 33 34 33 31 34 36 34 31 34 32 
SE 83 77 78 75 83 71 81 76 77 71 80 79 78 79 77 81 83 73 77 76 
SE 7 7 7 7 7 7 7 7 7 7 7 7 7 7 7 7 7 7 7 7 
SE 18 20 18 18 18 18 18 20 18 19 18 19 19 18 18 18 19 20 18 18 
SE 112 126 114 116 113 111 112 116 111 125 115 121 111 121 116 123 111 111 110 115 
SE 141 126 136 124 136 124 132 144 139 143 133 133 130 137 132 124 134 125 133 137 
SE 37 37 36 40 38 40 40 41 36 41 36 41 40 40 36 36 38 37 40 37 
SE 40 45 43 42 46 41 44 46 40 45 43 40 43 40 43 43 45 46 45 40 
SE 5 5 5 5 5 5 5 5 5 5 5 5 5 5 5 5 5 5 5 5 
END

SECTION StochasticTerminals
ST 1 1 0 0 0 0 0 0 0 0 0 0 0 0 0 0 0 0 0 0 0 
ST 2 0 0 0 0 0 0 0 0 0 0 0 0 0 0 0 0 0 0 0 0 
ST 3 0 0 0 0 0 0 0 0 0 0 0 0 0 0 0 0 0 0 0 0 
ST 4 0 0 0 0 0 0 1 0 0 0 0 0 0 0 0 0 0 0 0 0 
ST 5 0 0 0 0 0 0 0 0 0 0 0 0 1 0 0 0 0 0 0 0 
ST 6 0 0 0 0 0 0 1 0 0 0 0 0 0 0 0 0 0 0 0 0 
ST 7 0 0 0 0 0 0 0 0 0 0 0 0 0 0 0 0 0 0 0 0 
ST 8 0 0 0 0 0 0 0 0 0 1 0 0 0 0 0 0 0 0 0 0 
ST 9 0 0 0 0 0 0 1 0 0 0 0 0 0 0 0 0 0 0 0 0 
ST 10 0 1 0 0 0 0 0 0 0 0 0 0 0 0 0 0 0 0 0 0 
ST 11 0 0 0 0 0 0 0 0 0 0 0 0 0 0 0 0 0 0 0 0 
ST 12 0 0 0 0 0 0 0 1 0 0 0 0 0 0 0 0 0 0 0 0 
ST 13 0 0 0 0 0 0 0 0 0 0 0 0 0 0 0 0 0 0 0 0 
ST 14 0 0 0 0 0 0 0 0 0 0 0 0 0 0 1 0 0 0 0 0 
ST 15 0 0 0 0 0 0 0 0 0 0 0 0 0 0 0 1 0 0 0 0 
ST 16 0 0 0 0 0 0 0 0 1 1 0 0 0 0 0 0 0 0 0 0 
ST 17 0 0 0 0 0 0 0 0 0 0 0 0 0 0 0 0 0 0 0 0 
ST 18 0 0 0 0 0 0 0 0 0 0 0 0 0 0 0 1 0 0 0 0 
ST 19 0 0 0 0 0 0 0 0 0 0 0 0 0 0 0 0 0 0 0 0 
ST 20 0 0 0 0 0 0 0 0 1 0 0 0 0 0 0 0 0 0 1 0 
ST 21 1 1 1 1 1 1 1 1 1 1 1 1 1 1 1 1 1 1 1 1 
ST 22 0 0 0 0 0 0 0 0 1 0 0 0 0 0 0 0 0 0 1 0 
ST 23 0 0 0 0 0 0 0 0 0 0 0 0 0 0 0 0 0 0 1 0 
ST 24 0 0 0 0 1 0 1 1 0 0 0 0 0 0 0 0 0 0 0 0 
ST 25 0 0 0 0 0 0 1 0 0 0 0 0 1 0 0 0 0 0 0 0 
ST 26 0 0 0 0 0 0 0 0 0 0 0 0 0 0 0 0 0 0 0 0 
ST 27 0 0 0 0 0 0 0 1 0 1 0 0 0 0 0 0 0 0 0 0 
ST 28 0 0 0 0 0 0 0 0 0 0 0 0 0 0 0 0 0 0 0 0 
ST 29 0 0 0 0 0 0 0 1 0 0 0 0 0 0 0 0 0 0 0 0 
ST 30 0 0 0 1 0 0 0 0 0 0 0 0 0 0 0 0 0 0 0 0 
ST 31 1 0 0 0 0 0 0 0 0 0 0 0 0 0 0 0 0 0 0 0 
ST 32 0 0 0 0 0 0 0 0 0 0 0 0 0 0 1 0 0 0 0 1 
ST 33 0 0 1 0 0 0 0 0 0 0 0 0 0 0 0 0 0 0 0 0 
ST 34 0 0 0 0 1 0 0 0 0 0 0 0 0 0 0 0 0 0 0 0 
ST 35 0 0 0 1 0 1 1 1 0 0 0 0 0 1 0 0 0 0 0 0 
ST 36 0 0 0 0 0 0 1 0 0 0 0 0 0 0 0 1 0 0 0 0 
ST 37 0 1 0 0 0 0 0 0 0 0 0 0 0 0 0 0 0 0 0 0 
ST 38 0 0 0 0 0 1 0 0 0 0 0 0 0 0 0 0 0 0 0 0 
ST 39 0 0 0 0 0 0 0 0 0 0 0 0 0 0 0 0 0 0 0 0 
ST 40 0 0 0 0 0 0 0 0 1 0 0 0 0 0 0 0 0 0 1 0 
ST 41 0 0 0 0 0 0 0 1 0 0 0 0 0 0 0 0 0 0 0 0 
ST 42 0 0 0 0 0 0 0 0 0 0 0 0 0 0 0 0 0 0 0 0 
ST 43 0 0 0 0 0 0 0 0 0 1 0 0 0 0 0 0 0 0 0 0 
ST 44 0 0 0 0 0 0 0 0 0 0 0 0 0 0 0 0 0 0 0 0 
ST 45 0 0 0 0 0 0 0 0 0 0 0 0 0 0 0 0 0 0 0 0 
ST 46 0 0 0 0 0 0 0 0 0 0 0 0 0 0 0 0 0 0 0 0 
ST 47 0 0 0 0 0 0 0 0 0 0 1 0 0 0 0 0 0 0 0 0 
ST 48 0 0 0 0 0 0 0 0 0 0 0 0 0 0 0 0 0 0 0 0 
ST 49 0 0 0 0 0 0 0 0 0 0 0 0 0 0 0 0 0 0 0 0 
ST 50 0 0 0 0 0 0 0 0 0 0 0 0 0 0 0 0 0 0 0 0 
ST 51 0 0 0 0 0 0 0 0 0 0 0 0 0 0 0 0 0 0 0 0 
ST 52 0 0 0 0 1 0 0 0 0 0 0 0 0 0 0 0 0 0 0 0 
ST 53 0 0 0 0 0 1 0 0 0 0 0 0 0 0 0 0 0 0 0 0 
ST 54 0 0 0 0 0 0 0 0 0 0 0 0 0 0 0 0 0 0 0 0 
ST 55 0 0 0 1 0 0 0 0 0 0 0 0 0 0 0 0 0 0 0 0 
ST 56 0 0 0 0 0 0 0 0 0 0 0 0 0 0 0 0 0 0 0 0 
ST 57 0 0 1 0 0 0 0 0 0 0 0 0 0 0 0 0 0 0 0 0 
ST 58 0 0 0 0 0 0 0 0 0 0 0 0 0 0 0 0 0 0 0 0 
ST 59 0 0 0 0 0 0 0 0 1 0 0 0 0 0 0 0 0 0 0 0 
ST 60 0 0 0 0 0 0 0 0 0 0 0 0 0 0 0 1 0 0 0 0 
ST 61 0 0 0 0 0 0 0 0 1 0 0 0 0 0 0 0 0 0 0 0 
ST 62 0 1 0 0 0 0 0 0 0 0 0 0 0 0 0 0 0 0 0 0 
ST 63 0 0 0 0 0 0 0 0 1 0 0 0 0 0 0 0 0 0 0 0 
ST 64 0 1 0 0 0 0 0 0 0 0 1 0 0 0 1 0 0 0 0 0 
ST 65 1 0 0 0 0 0 0 0 0 0 0 0 0 0 1 0 0 0 1 0 
ST 66 0 0 0 0 0 0 0 0 0 1 0 0 0 0 0 0 0 0 0 0 
ST 67 1 0 0 0 0 0 0 0 0 0 0 0 0 0 0 0 0 0 0 0 
ST 68 0 0 0 0 0 0 0 0 0 0 1 0 1 0 0 0 0 0 0 0 
ST 69 0 0 0 0 0 1 0 0 0 0 0 0 0 0 0 0 0 1 0 0 
ST 70 0 0 0 0 0 0 0 0 0 1 0 0 0 0 0 0 0 0 0 0 
ST 71 0 0 1 0 0 0 1 1 0 0 1 0 1 0 0 1 0 0 0 0 
ST 72 0 0 0 0 0 0 0 0 0 0 0 0 0 0 0 0 0 0 0 0 
ST 73 0 0 0 0 0 0 0 0 0 0 0 0 0 0 0 0 0 0 0 0 
ST 74 0 0 0 0 0 0 0 0 0 0 0 0 0 0 0 0 0 0 0 0 
ST 75 0 0 0 0 0 0 0 0 0 0 1 1 0 0 0 0 0 0 0 0 
ST 76 1 0 0 0 0 0 0 0 0 0 0 0 0 0 0 0 0 0 0 0 
ST 77 0 0 0 0 0 0 0 0 0 0 0 0 0 0 1 0 0 0 0 0 
ST 78 0 0 0 1 0 0 0 0 0 0 0 0 0 0 0 0 0 0 0 0 
ST 79 1 0 0 0 0 1 0 0 1 1 0 1 0 0 0 1 0 0 0 1 
ST 80 0 0 0 0 0 0 0 0 0 0 0 0 0 0 0 0 0 0 0 0 
ST 81 0 0 0 0 0 0 0 0 0 0 0 0 0 0 0 0 0 0 0 0 
ST 82 0 0 0 0 0 0 0 0 0 0 1 0 0 0 0 0 0 0 0 0 
ST 83 0 0 0 0 0 0 0 0 0 0 0 0 0 0 0 0 0 0 0 0 
ST 84 0 0 0 0 0 0 0 0 1 1 0 0 0 0 0 0 0 0 0 0 
ST 85 0 0 0 0 0 0 0 0 0 0 0 0 0 0 0 0 0 0 0 0 
ST 86 0 1 0 0 1 0 0 0 0 0 1 0 0 0 0 0 0 0 0 0 
ST 87 0 0 0 0 0 0 0 0 0 0 0 1 0 0 0 0 0 0 0 0 
ST 88 0 0 0 0 0 0 0 0 0 0 0 0 0 1 0 0 0 0 0 0 
ST 89 0 0 0 0 0 0 0 0 0 0 0 0 0 0 1 0 0 0 0 0 
ST 90 0 1 0 0 0 0 0 0 0 0 0 0 0 0 0 0 0 0 0 0 
ST 91 0 0 0 0 0 0 0 0 0 0 0 0 0 0 0 0 0 0 0 0 
ST 92 0 0 0 0 0 0 0 0 0 0 0 0 0 1 1 0 0 1 1 0 
ST 93 0 1 0 0 0 0 1 0 1 1 0 0 0 1 0 0 0 0 0 0 
ST 94 0 0 0 0 0 0 0 1 0 0 0 0 0 0 0 0 0 0 0 0 
ST 95 0 0 0 0 0 0 1 0 0 0 0 0 0 0 0 0 0 0 0 0 
ST 96 0 0 0 0 0 0 0 0 0 0 0 0 1 0 0 0 0 0 1 0 
ST 97 0 0 0 0 0 0 0 0 0 0 0 0 0 0 1 0 0 0 0 0 
ST 98 0 1 0 0 0 0 0 0 0 0 0 0 1 0 0 0 0 0 1 0 
ST 99 0 0 0 0 0 0 0 1 0 0 0 0 0 0 0 0 0 0 0 0 
ST 100 0 0 0 0 0 0 0 0 0 0 0 0 0 0 0 0 1 0 0 0 
ST 101 0 0 0 0 0 0 0 0 0 1 1 0 0 0 0 0 0 0 0 0 
ST 102 0 0 0 0 0 0 0 0 0 0 0 0 0 0 0 0 0 0 0 0 
ST 103 0 1 0 1 0 0 0 0 0 0 1 0 1 1 0 0 0 0 1 1 
ST 104 1 1 0 0 0 0 0 0 0 0 1 0 0 0 0 0 0 0 0 0 
ST 105 0 0 0 1 0 0 0 0 1 0 0 0 0 0 0 0 0 0 0 0 
ST 106 0 0 0 0 0 0 0 0 0 0 0 0 0 0 0 0 0 0 0 0 
ST 107 0 0 0 0 0 0 0 0 0 0 0 0 0 0 1 0 0 0 0 0 
ST 108 0 1 0 0 0 0 0 0 0 0 0 0 0 0 0 0 0 0 0 1 
ST 109 0 0 0 0 1 0 0 0 0 0 0 0 0 0 0 0 0 1 0 0 
ST 110 0 0 0 0 0 0 0 0 0 0 0 0 0 0 0 0 0 0 0 1 
ST 111 0 0 0 0 0 0 0 0 1 0 0 0 0 0 1 0 0 0 0 0 
ST 112 0 0 0 0 0 0 0 0 0 0 0 0 0 0 0 0 0 0 0 0 
ST 113 0 0 0 0 0 1 0 0 0 0 0 0 0 0 0 0 0 0 0 0 
ST 114 0 0 0 0 0 0 0 0 0 0 0 0 1 0 0 0 0 0 0 0 
ST 115 0 0 0 0 0 0 0 0 0 0 0 0 0 0 0 0 0 0 0 0 
ST 116 0 0 0 0 0 0 0 0 0 0 0 0 0 0 0 0 0 0 0 0 
ST 117 0 0 0 0 0 0 0 0 0 0 0 0 0 0 0 0 0 0 0 0 
ST 118 0 0 0 0 0 0 0 0 0 0 0 0 0 0 0 0 0 0 0 0 
ST 119 0 0 0 0 0 0 0 0 0 0 0 1 0 0 0 0 1 0 0 0 
ST 120 0 0 0 0 0 0 0 0 0 0 0 1 0 0 0 0 0 0 0 0 
ST 121 0 0 0 0 0 0 0 0 0 0 0 0 0 1 0 0 0 0 0 0 
ST 122 0 0 0 0 0 0 0 0 0 0 0 0 0 0 0 0 0 0 0 0 
ST 123 0 0 0 0 0 0 0 0 0 0 0 0 1 0 0 0 0 0 0 0 
ST 124 0 0 0 0 0 0 0 0 0 0 0 0 0 1 0 0 1 0 0 0 
ST 125 0 0 0 0 0 0 0 0 0 0 0 0 0 0 0 0 0 0 0 0 
ST 126 0 0 0 0 0 0 0 0 0 0 0 0 0 0 0 0 0 1 0 0 
ST 127 0 0 0 0 0 0 0 0 0 0 0 0 0 0 0 0 0 0 0 0 
ST 128 0 0 0 0 0 0 0 0 0 0 0 0 0 0 0 0 0 0 0 0 
ST 129 0 0 0 0 0 0 0 0 0 0 0 0 0 0 0 0 0 0 0 1 
ST 130 0 0 0 0 0 0 0 0 0 1 0 0 0 0 0 0 0 0 0 0 
ST 131 0 0 0 0 0 0 0 0 0 0 0 0 0 0 0 0 0 0 0 0 
ST 132 0 0 0 0 0 0 0 0 0 0 0 0 0 0 0 0 0 0 0 0 
ST 133 0 0 0 0 0 0 0 0 0 0 0 0 0 1 0 0 0 0 0 0 
ST 134 0 0 0 0 0 0 0 0 0 0 1 0 0 0 0 0 0 0 0 0 
ST 135 0 0 0 0 0 1 0 0 0 0 0 0 1 0 0 0 0 0 0 0 
ST 136 0 0 0 0 0 0 0 0 0 0 0 0 0 0 0 0 0 0 0 0 
ST 137 0 0 0 0 0 1 0 0 0 0 0 0 0 0 0 0 0 0 0 0 
ST 138 0 0 0 0 0 0 0 0 0 0 0 0 0 0 0 0 0 0 0 0 
ST 139 0 0 0 0 0 0 0 0 0 0 0 0 0 0 0 0 0 0 0 0 
ST 140 0 0 0 0 1 0 0 0 0 0 0 0 0 0 0 0 0 0 0 0 
ST 141 0 0 0 0 1 0 0 0 0 0 0 0 0 0 0 0 0 0 0 0 
ST 142 0 0 0 0 0 0 0 0 0 0 0 0 0 0 0 0 0 0 0 0 
ST 143 0 0 0 0 0 0 0 0 0 0 0 0 0 0 1 0 0 0 0 0 
ST 144 0 0 0 0 0 0 0 0 0 0 0 0 0 0 0 0 0 0 0 0 
ST 145 0 0 0 1 0 0 0 0 0 0 0 0 0 0 0 0 0 0 0 0 
ST 146 0 0 0 0 0 0 0 0 0 0 0 0 0 0 0 0 0 0 0 0 
ST 147 0 0 0 0 0 0 0 0 0 0 0 0 0 0 0 0 0 0 0 0 
ST 148 0 0 0 0 0 0 1 0 0 0 0 0 0 0 0 0 0 0 0 0 
ST 149 1 1 0 1 1 0 0 0 1 0 1 0 1 1 0 0 0 0 0 1 
ST 150 0 0 0 0 0 0 0 0 0 0 0 0 0 0 0 0 0 0 0 0 
ST 151 0 0 0 0 0 0 0 0 0 0 0 0 0 0 0 0 0 0 0 0 
ST 152 0 0 0 0 0 1 0 0 0 0 0 0 0 0 0 0 0 0 0 0 
ST 153 0 0 0 1 0 1 0 0 0 1 0 0 0 0 0 0 0 0 1 0 
ST 154 0 0 0 0 0 0 0 0 0 0 0 0 0 0 0 1 0 0 0 0 
ST 155 0 0 0 0 0 0 0 0 0 0 0 0 0 0 0 0 0 0 0 0 
ST 156 0 0 0 0 0 0 0 0 0 0 0 0 0 0 0 0 0 0 0 0 
ST 157 0 0 0 0 0 0 0 0 0 0 0 0 0 0 0 0 0 0 0 1 
END


SECTION Coordinates
DD 1 0 0
DD 2 286 300
DD 3 358 136
DD 4 518 74
DD 5 330 74
DD 6 138 576
DD 7 102 782
DD 8 248 604
DD 9 476 0
DD 10 478 0
DD 11 550 418
DD 12 518 782
DD 13 518 736
DD 14 248 782
DD 15 146 364
DD 16 102 292
DD 17 178 576
DD 18 518 604
DD 19 388 736
DD 20 518 0
DD 21 178 685
DD 22 478 576
DD 23 276 300
DD 24 550 260
DD 25 146 292
DD 26 276 364
DD 27 550 382
DD 28 550 0
DD 29 286 234
DD 30 248 736
DD 31 388 604
DD 32 478 74
DD 33 76 294
DD 34 0 122
DD 35 52 436
DD 36 518 576
DD 37 146 250
DD 38 276 604
DD 39 502 604
DD 40 0 136
DD 41 472 418
DD 42 248 576
DD 43 76 300
DD 44 304 136
DD 45 110 136
DD 46 146 0
DD 47 472 604
DD 48 550 736
DD 49 102 736
DD 50 518 260
DD 51 330 136
DD 52 0 604
DD 53 138 440
DD 54 472 576
DD 55 76 122
DD 56 478 782
DD 57 126 576
DD 58 110 292
DD 59 110 300
DD 60 126 440
DD 61 478 136
DD 62 126 604
DD 63 76 364
DD 64 138 300
DD 65 502 576
DD 66 550 74
DD 67 110 364
DD 68 178 604
DD 69 146 136
DD 70 286 364
DD 71 110 404
DD 72 502 736
DD 73 478 364
DD 74 110 436
DD 75 110 440
DD 76 276 486
DD 77 138 364
DD 78 478 604
DD 79 478 173
DD 80 0 234
DD 81 102 440
DD 82 472 364
DD 83 330 250
DD 84 478 736
DD 85 388 782
DD 86 138 294
DD 87 518 382
DD 88 472 736
DD 89 330 234
DD 90 102 294
DD 91 138 122
DD 92 276 782
DD 93 102 436
DD 94 286 250
DD 95 126 486
DD 96 304 74
DD 97 550 782
DD 98 0 736
DD 99 388 576
DD 100 102 604
DD 101 0 294
DD 102 0 300
DD 103 386 136
DD 104 304 0
DD 105 502 418
DD 106 248 486
DD 107 502 382
DD 108 138 234
DD 109 330 0
DD 110 138 250
DD 111 0 782
DD 112 358 74
DD 113 178 486
DD 114 276 576
DD 115 472 782
DD 116 178 736
DD 117 478 260
DD 118 472 382
DD 119 138 486
DD 120 518 136
DD 121 358 0
DD 122 76 136
DD 123 502 782
DD 124 146 122
DD 125 110 122
DD 126 476 136
DD 127 0 364
DD 128 518 418
DD 129 476 250
DD 130 138 604
DD 131 276 736
DD 132 76 234
DD 133 550 604
DD 134 102 364
DD 135 146 300
DD 136 110 234
DD 137 146 294
DD 138 110 250
DD 139 110 294
DD 140 476 74
DD 141 388 418
DD 142 76 292
DD 143 550 206
DD 144 138 292
DD 145 502 260
DD 146 478 250
DD 147 550 576
DD 148 518 206
DD 149 388 516
DD 150 146 234
DD 151 102 300
DD 152 478 382
DD 153 138 136
DD 154 0 436
DD 155 478 418
DD 156 276 418
DD 157 0 440
END

EOF
